1159
1   1   132  99   0 88 30 71 65 35 9 51 0
1   2   48   90   0 60 99 93 61 84 45 8 83 0
1   3   52   100  0 98 37 100 14 44 91 5 0
1   4   45   95   0 85 16 86 0
2   1   8    42   0 68 80 0
2   2   52   87   0 54 39 4 12 0
2   3   56   88   0 72 75 74 73 21 26 0
2   4   58   89   0 77 76 50 33 81 29 24 0
3   1   144  97   0 6 18 82 47 46 17 38 43 15 42 0
3   2   93   100  0 40 55 25 67 23 56 22 41 0
3   3   46   87   0 58 53 28 27 13 0
3   4   122  97   0 1 20 66 34 78 79 3 0
4   1   88   96   0 62 19 36 49 64 10 0
4   2   71   94   0 70 32 90 63 11 48 7 0
4   3   64   97   0 31 52 96 59 92 95 0
4   4   80   100  0 69 2 57 87 97 94 89 0